
(set-logic BV)

(define-fun shr1 ((x (BitVec 64))) (BitVec 64) (bvlshr x #x0000000000000001))
(define-fun shr4 ((x (BitVec 64))) (BitVec 64) (bvlshr x #x0000000000000004))
(define-fun shr16 ((x (BitVec 64))) (BitVec 64) (bvlshr x #x0000000000000010))
(define-fun shl1 ((x (BitVec 64))) (BitVec 64) (bvshl x #x0000000000000001))
(define-fun if0 ((x (BitVec 64)) (y (BitVec 64)) (z (BitVec 64))) (BitVec 64) (ite (= x #x0000000000000001) y z))
(define-fun func22  ((A (BitVec 64)) ) (BitVec 64) (bvand A  #x0000000000000001 ))
(define-fun func23  ((A (BitVec 64)) (B (BitVec 64)) (C (BitVec 64)) ) (BitVec 64) (bvand (bvlshr B  C ) A ))
(define-fun func24  ((A (BitVec 64)) (B (BitVec 64)) ) (BitVec 64) (bvand (bvlshr B  #x0000000000000001 ) A ))
(define-fun func25  ((A (BitVec 64)) (B (BitVec 64)) ) (BitVec 64) (bvand (bvlshr B  #x0000000000000010 ) A ))
(define-fun func26  ((A (BitVec 64)) (B (BitVec 64)) ) (BitVec 64) (bvand (bvlshr B  #x0000000000000004 ) A ))
(define-fun func27  ((A (BitVec 64)) (B (BitVec 64)) (C (BitVec 64)) (D (BitVec 64)) ) (BitVec 64) (bvand (bvlshr (bvlshr C  D ) B ) A ))
(define-fun func28  ((A (BitVec 64)) (B (BitVec 64)) ) (BitVec 64) (bvand (bvlshr A  B ) #x0000000000000001 ))
(define-fun func29  ((A (BitVec 64)) (B (BitVec 64)) ) (BitVec 64) (bvlshr A  B ))
(define-fun func30  ((A (BitVec 64)) (B (BitVec 64)) (C (BitVec 64)) ) (BitVec 64) (bvlshr (bvlshr B  C ) A ))
(define-fun func31  ((A (BitVec 64)) (B (BitVec 64)) ) (BitVec 64) (bvlshr (bvlshr B  #x0000000000000010 ) A ))
(define-fun func32  ((A (BitVec 64)) (B (BitVec 64)) ) (BitVec 64) (bvlshr (bvlshr B  #x0000000000000004 ) A ))
(define-fun func33  ((A (BitVec 64)) (B (BitVec 64)) (C (BitVec 64)) (D (BitVec 64)) ) (BitVec 64) (bvlshr (bvlshr (bvlshr C  D ) B ) A ))
(define-fun func34  ((A (BitVec 64)) (B (BitVec 64)) (C (BitVec 64)) ) (BitVec 64) (bvlshr (bvlshr (bvlshr C  #x0000000000000010 ) B ) A ))
(define-fun func35  ((A (BitVec 64)) (B (BitVec 64)) ) (BitVec 64) (bvlshr (bvlshr B  #x0000000000000001 ) A ))
(define-fun func36  ((A (BitVec 64)) (B (BitVec 64)) ) (BitVec 64) (bvlshr (bvlshr A  B ) #x0000000000000001 ))
(define-fun func37  ((A (BitVec 64)) (B (BitVec 64)) ) (BitVec 64) (bvlshr (bvlshr A  B ) #x0000000000000004 ))
(define-fun func38  ((A (BitVec 64)) (B (BitVec 64)) (C (BitVec 64)) ) (BitVec 64) (bvlshr (bvshl B  C ) A ))
(define-fun func39  ((A (BitVec 64)) (B (BitVec 64)) ) (BitVec 64) (bvlshr (bvshl B  #x0000000000000001 ) A ))
(define-fun func40  ((A (BitVec 64)) (B (BitVec 64)) ) (BitVec 64) (bvlshr (bvnot B ) A ))
(define-fun func41  ((A (BitVec 64)) ) (BitVec 64) (bvlshr (bvnot A ) #x0000000000000010 ))
(define-fun func42  ((A (BitVec 64)) (B (BitVec 64)) (C (BitVec 64)) ) (BitVec 64) (bvlshr (bvadd B  C ) A ))
(define-fun func44  ((A (BitVec 64)) (B (BitVec 64)) (C (BitVec 64)) ) (BitVec 64) (bvshl (bvlshr B  C ) A ))
(define-fun func45  ((A (BitVec 64)) (B (BitVec 64)) ) (BitVec 64) (bvshl (bvlshr B  #x0000000000000001 ) A ))
(define-fun func46  ((A (BitVec 64)) (B (BitVec 64)) ) (BitVec 64) (bvshl (bvlshr A  B ) #x0000000000000001 ))
(define-fun func47  ((A (BitVec 64)) (B (BitVec 64)) ) (BitVec 64) (bvshl (bvnot B ) A ))
(define-fun func48  ((A (BitVec 64)) ) (BitVec 64) (bvshl (bvnot A ) #x0000000000000001 ))
(define-fun func50  ((A (BitVec 64)) ) (BitVec 64) (bvnot (bvshl A  #x0000000000000001 )))
(define-fun func51  ((A (BitVec 64)) ) (BitVec 64) (bvadd A  #x0000000000000001 ))
(define-fun func52  ((A (BitVec 64)) (B (BitVec 64)) (C (BitVec 64)) ) (BitVec 64) (bvadd (bvlshr B  C ) A ))
(define-fun func53  ((A (BitVec 64)) (B (BitVec 64)) (C (BitVec 64)) ) (BitVec 64) (bvadd (bvshl B  C ) A ))
(define-fun func54  ((A (BitVec 64)) (B (BitVec 64)) ) (BitVec 64) (bvadd (bvshl B  #x0000000000000001 ) A ))
(define-fun func55  ((A (BitVec 64)) ) (BitVec 64) (bvor A  #x0000000000000001 ))
(define-fun func56  ((A (BitVec 64)) (B (BitVec 64)) (C (BitVec 64)) ) (BitVec 64) (bvor (bvlshr B  C ) A ))
(synth-fun f ( (x (BitVec 64))) (BitVec 64)
(
(Start (BitVec 64) (
   #x0000000000000000
   #x0000000000000001
   x
   (func22 Start)
   (func24 Start Start)
   (func28 Start Start)
   (func29 Start Start)
   (func31 Start Start)
   (func35 Start Start)
   (func37 Start Start)
   (func38 Start Start Start)
   (func39 Start Start)
   (func40 Start Start)
   (func44 Start Start Start)
   (func51 Start)
   (func52 Start Start Start)
   (func53 Start Start Start)
   (func54 Start Start)
   (func56 Start Start Start)
   (shr1 Start)
   (shr16 Start)
   (if0 Start Start Start)
))
))
(constraint (= (f #x0580ec481c85fbda) #x0b01d890390bf7b5))
(constraint (= (f #xe5534923f5a0374a) #xcaa69247eb406e95))
(constraint (= (f #x92b123dbdccb5d2e) #x256247b7b996ba5d))
(constraint (= (f #x08a634c309bf838a) #x114c6986137f0715))
(constraint (= (f #x5e62b3ef014067de) #xbcc567de0280cfbd))
(constraint (= (f #x71c4e8eade1e4bdf) #xc713a3ab78792f7c))
(constraint (= (f #xfa201ac7d8582d6d) #xe8806b1f6160b5b4))
(constraint (= (f #x8c011886eb10e90b) #x3004621bac43a42c))
(constraint (= (f #x1ab99b76ecda9379) #x6ae66ddbb36a4de4))
(constraint (= (f #x9064de5b140a596b) #x4193796c502965ac))
(constraint (= (f #x36df1c845d1ba4be) #x6dbe3908ba37497d))
(constraint (= (f #xcb3fb27184fa57b6) #x967f64e309f4af6d))
(constraint (= (f #x335b831291e97072) #x66b7062523d2e0e5))
(constraint (= (f #xbfe52371ebe731c2) #x7fca46e3d7ce6385))
(constraint (= (f #x2139e3010da72642) #x4273c6021b4e4c85))
(constraint (= (f #x0000000000000000) #x0000000000000001))
(constraint (= (f #x1767f97c4db023a1) #x2ecff2f89b604743))
(constraint (= (f #x9e2893d2af56a423) #x3c5127a55ead4847))
(constraint (= (f #xfa555c974566087d) #xf4aab92e8acc10fb))
(constraint (= (f #x38dde1c8f610a3c5) #x71bbc391ec21478b))
(constraint (= (f #x5c7f0230125972ab) #xb8fe046024b2e557))
(constraint (= (f #xffffffffffffffff) #xfffffffffffffffc))
(constraint (= (f #x47651724a4afa2a0) #x8eca2e49495f4541))
(constraint (= (f #xa36267c9111b5b3d) #x8d899f24446d6cf4))
(constraint (= (f #x002001f3792a1acb) #x004003e6f2543597))
(constraint (= (f #x41e152d2663fcd5f) #x07854b4998ff357c))
(constraint (= (f #x3abaa4eb58bca74b) #xeaea93ad62f29d2c))
(constraint (= (f #x9d85b24f2f78e6d6) #x3b0b649e5ef1cdad))
(constraint (= (f #x83ddfe4d747bd7cc) #x07bbfc9ae8f7af99))
(constraint (= (f #x66d45038650db908) #xcda8a070ca1b7211))
(constraint (= (f #x1034baee950dc045) #x206975dd2a1b808b))
(constraint (= (f #xcb299fe0eb42eefe) #x96533fc1d685ddfd))
(constraint (= (f #xffffffffffffffff) #xfffffffffffffffc))
(constraint (= (f #x0000000000000000) #x0000000000000001))
(constraint (= (f #x8cb58dcfb3c863c1) #x196b1b9f6790c783))
(constraint (= (f #x6914e1f07072b3dd) #xa45387c1c1cacf74))
(constraint (= (f #x62bf61933b3e7f93) #xc57ec326767cff27))
(constraint (= (f #xa5d4923ebbdb2e3f) #x4ba9247d77b65c7f))
(constraint (= (f #x04bc7f6a6fff43fb) #x12f1fda9bffd0fec))
(constraint (= (f #x0d134835dc81f5b3) #x1a26906bb903eb67))
(constraint (= (f #xf21f24663e038a33) #xe43e48cc7c071467))
(constraint (= (f #x894f95237ba3512f) #x253e548dee8d44bc))
(check-synth)
